WARNING: for repeatability, setting FPU to use double precision
 -----------------------------------------------------------------------------------------------------------------------
|                                 manysat2.0    4 thread(s) on 8 core(s)                                                |
 -----------------------------------------------------------------------------------------------------------------------
 ===============================================[ Problem Statistics ]==================================================
|                                                                                                                       |
|  Number of cores:                 4                                                                                   |
|  Number of variables:           720                                                                                   |
|  Number of clauses:           27360                                                                                   |
|  Parse time:                   0.02 s                                                                                 |
|                                                                                                                       |
 ==============================================[ Search Statistics ]====================================================
|   Thread  | Conflicts |          ORIGINAL         |          LEARNT          |  exported  / imported      |  Progress |
|    (id)   |           |    Vars  Clauses Literals |    Limit  Clauses Lit/Cl |  (clauses by restart)      |           |
 =======================================================================================================================
|         0 |       100 |     720    27360   107280 |    10032      100     18 |           0  -           0 |  0.000 %  |
|         3 |       100 |     720    27360   107280 |    10032      158     38 |           0  -          58 |  0.000 %  |
|         0 |       250 |     720    27360   107280 |    11035      288     21 |           0  -          38 |  0.000 %  |
|         1 |       100 |     720    27360   107280 |    10032      174     36 |           0  -          74 |  0.000 %  |
|         2 |       100 |     720    27360   107280 |    10032      176     28 |           0  -          76 |  0.000 %  |
|         3 |       250 |     720    27360   107280 |    11035      330     30 |           0  -          80 |  0.001 %  |
|         0 |       475 |     720    27360   107280 |    12138      517     26 |           0  -          42 |  0.000 %  |
|         2 |       250 |     720    27360   107280 |    11035      328     27 |           0  -          78 |  0.000 %  |
|         3 |       475 |     720    27360   107280 |    12138      561     31 |           0  -          86 |  0.001 %  |
|         1 |       250 |     720    27360   107280 |    11035      330     35 |           0  -          80 |  0.001 %  |
|         0 |       812 |     720    27360   107280 |    13352      858     29 |           0  -          46 |  0.001 %  |
|         2 |       475 |     720    27360   107280 |    12138      554     32 |           0  -          79 |  0.001 %  |
|         3 |       812 |     720    27360   107280 |    13352      899     32 |           0  -          87 |  0.001 %  |
|         1 |       475 |     720    27360   107280 |    12138      557     36 |           0  -          82 |  0.001 %  |
 =======================================================================================================================
 -----------------------------------------------------------------------------------------------------------------------
| ManySAT 2.2 - all threads statistics           DETERMINISTIC MODE ? N              initial limit export clauses :  10 |
|-----------------------------------------------------------------------------------------------------------------------|
|  Thread  | winner  |   #restarts   |   decisions   |  #conflicts   |   % shared cls  |  #extra units | #extra clauses |         
|----------|---------|---------------|---------------|---------------|-----------------|---------------|----------------|
|        0 |         |             7 |          3287 |           992 |             4 % |             0 |             46 |
|        1 |         |             4 |          1845 |           493 |            16 % |             0 |             82 |
|        2 |         |             5 |          2298 |           517 |            15 % |             0 |             79 |
|        3 |       x |             7 |          3503 |           841 |            10 % |             0 |             87 |
|----------------------------------------------------|---------------|-----------------|---------------|----------------|
|                                                    |          2843 |            10 % |             0 |            294 |
 -----------------------------------------------------------------------------------------------------------------------
 DETERMINISTIC_MODE? : NO 
 CONTROL POLICY?	 : STATIC (fixed Limit Export Clauses)  
 LIMIT EXPORT CLAUSES (PAIRWISE) : [identity] x 10

  ----------------------------------------         
   winner:  more statistics           
  ----------------------------------------         
  restarts              : 7
  conflicts             : 841            (21024 /sec)
  decisions             : 3503           (7.37 % random) (87571 /sec)
  propagations          : 24719          (617944 /sec)
  conflict literals     : 28822          (2.21 % deleted)
  Memory used           : 258.00 MB
  CPU time              : 0.040002 s

SATISFIABLE
WARNING: for repeatability, setting FPU to use double precision
 -----------------------------------------------------------------------------------------------------------------------
|                                 manysat2.0    4 thread(s) on 8 core(s)                                                |
 -----------------------------------------------------------------------------------------------------------------------
 ===============================================[ Problem Statistics ]==================================================
|                                                                                                                       |
|  Number of cores:                 4                                                                                   |
|  Number of variables:           720                                                                                   |
|  Number of clauses:           27360                                                                                   |
|  Parse time:                   0.01 s                                                                                 |
|                                                                                                                       |
 ==============================================[ Search Statistics ]====================================================
|   Thread  | Conflicts |          ORIGINAL         |          LEARNT          |  exported  / imported      |  Progress |
|    (id)   |           |    Vars  Clauses Literals |    Limit  Clauses Lit/Cl |  (clauses by restart)      |           |
 =======================================================================================================================
|         0 |       100 |     720    27360   107280 |    10032      102     18 |           0  -           2 |  0.000 %  |
|         2 |       100 |     720    27360   107280 |    10032      146     32 |           0  -          46 |  0.000 %  |
|         0 |       250 |     720    27360   107280 |    11035      286     21 |           0  -          36 |  0.000 %  |
|         1 |       100 |     720    27360   107280 |    10032      174     36 |           0  -          74 |  0.000 %  |
|         3 |       100 |     720    27360   107280 |    10032      182     34 |           0  -          82 |  0.000 %  |
|         2 |       250 |     720    27360   107280 |    11035      324     27 |           0  -          74 |  0.000 %  |
|         0 |       475 |     720    27360   107280 |    12138      519     26 |           0  -          44 |  0.000 %  |
|         2 |       475 |     720    27360   107280 |    12138      553     32 |           0  -          78 |  0.001 %  |
|         3 |       250 |     720    27360   107280 |    11035      337     29 |           0  -          87 |  0.001 %  |
|         1 |       250 |     720    27360   107280 |    11035      331     34 |           0  -          81 |  0.001 %  |
|         0 |       812 |     720    27360   107280 |    13352      859     29 |           0  -          47 |  0.001 %  |
|         2 |       812 |     720    27360   107280 |    13352      890     32 |           0  -          78 |  0.000 %  |
|         3 |       475 |     720    27360   107280 |    12138      566     31 |           0  -          91 |  0.001 %  |
|         1 |       475 |     720    27360   107280 |    12138      561     36 |           0  -          86 |  0.001 %  |
|         0 |      1318 |     720    27360   107280 |    14687     1372     33 |           0  -          54 |  0.001 %  |
|         2 |      1318 |     720    27360   107280 |    14687     1402     34 |           0  -          84 |  0.001 %  |
|         3 |       812 |     720    27360   107280 |    13352      912     32 |           0  -         100 |  0.001 %  |
 =======================================================================================================================
|         1 |       812 |     720    27360   107280 |    13352      905     36 |           0  -          93 |  0.001 %  |
 -----------------------------------------------------------------------------------------------------------------------
| ManySAT 2.2 - all threads statistics           DETERMINISTIC MODE ? N              initial limit export clauses :  10 |
|-----------------------------------------------------------------------------------------------------------------------|
|  Thread  | winner  |   #restarts   |   decisions   |  #conflicts   |   % shared cls  |  #extra units | #extra clauses |         
|----------|---------|---------------|---------------|---------------|-----------------|---------------|----------------|
|        0 |         |            10 |          4946 |          1475 |             3 % |             0 |             54 |
|        1 |         |             7 |          3159 |           812 |            11 % |             0 |             93 |
|        2 |         |            10 |          5327 |          1450 |             5 % |             0 |             86 |
|        3 |       x |             7 |          3503 |           841 |            11 % |             0 |            100 |
|----------------------------------------------------|---------------|-----------------|---------------|----------------|
|                                                    |          4578 |             7 % |             0 |            333 |
 -----------------------------------------------------------------------------------------------------------------------
 DETERMINISTIC_MODE? : NO 
 CONTROL POLICY?	 : STATIC (fixed Limit Export Clauses)  
 LIMIT EXPORT CLAUSES (PAIRWISE) : [identity] x 10

  ----------------------------------------         
   winner:  more statistics           
  ----------------------------------------         
  restarts              : 7
  conflicts             : 841            (17520 /sec)
  decisions             : 3503           (7.37 % random) (72975 /sec)
  propagations          : 24719          (514947 /sec)
  conflict literals     : 28822          (2.21 % deleted)
  Memory used           : 385.00 MB
  CPU time              : 0.048003 s

SATISFIABLE
